BAYES
262
2 2 2 2 2 2 2 2 2 2 2 2 2 2 2 2 2 2 2 2 2 2 2 2 2 2 2 2 2 2 2 2 2 2 2 2 2 2 2 2 2 2 2 2 2 2 2 2 2 2 2 2 2 2 2 2 2 2 2 2 2 2 2 2 2 2 2 2 2 2 2 2 2 2 2 2 2 2 2 2 2 2 2 2 2 2 2 2 2 2 2 2 2 2 2 2 2 2 2 2 2 2 2 2 2 2 2 2 2 2 2 2 2 2 2 2 2 2 2 2 2 2 2 2 2 2 2 2 2 2 2 2 2 2 2 2 2 2 2 2 2 2 2 2 2 2 2 2 2 2 2 2 2 2 2 2 2 2 2 2 2 2 2 2 2 2 2 2 2 2 2 2 2 2 2 2 2 2 2 2 2 2 2 2 2 2 2 2 2 2 2 2 2 2 2 2 2 2 2 2 2 2 2 2 2 2 2 2 2 2 2 2 2 2 2 2 2 2 2 2 2 2 2 2 2 2 2 2 2 2 2 2 2 2 2 2 2 2 2 2 2 2 2 2 2 2 2 2 2 2 2 2 2 2 2 2 2 2 2 2 2 2
262
1 0
1 1
1 2
1 3
1 4
1 5
1 6
1 7
1 8
1 9
1 10
1 11
1 12
1 13
1 14
1 15
1 16
1 17
1 18
1 19
1 20
1 21
1 22
1 23
2 1 24
3 1 3 25
3 4 2 26
3 2 4 27
3 1 4 28
3 0 5 29
3 5 2 30
3 5 0 31
3 7 2 32
3 7 4 33
3 4 7 34
3 2 7 35
3 2 8 36
3 0 8 37
3 8 7 38
3 8 4 39
3 8 0 40
3 7 8 41
3 4 8 42
3 8 2 43
2 8 44
3 9 3 45
2 9 46
3 9 2 47
3 9 5 48
3 3 9 49
3 10 1 50
3 9 10 51
3 1 10 52
3 8 13 53
3 13 12 54
3 15 13 55
3 9 15 56
3 15 14 57
3 1 16 58
3 10 16 59
3 16 10 60
3 16 1 61
3 17 13 62
3 15 17 63
3 1 17 64
3 17 11 65
3 13 18 66
3 17 18 67
3 15 18 68
3 18 6 69
3 8 19 70
3 3 19 71
3 19 3 72
3 9 19 73
3 19 9 74
3 20 4 75
3 20 0 76
3 0 20 77
3 1 20 78
3 20 5 79
3 5 20 80
3 21 9 81
3 21 19 82
3 21 3 83
3 9 21 84
3 19 21 85
3 3 21 86
3 16 22 87
3 1 22 88
3 22 16 89
3 8 22 90
3 22 10 91
3 10 22 92
3 22 1 93
3 23 7 94
3 23 18 95
2 23 96
3 20 23 97
3 23 7 98
3 5 23 99
3 23 0 100
3 23 21 101
3 23 20 102
3 23 5 103
3 0 23 104
3 23 16 105
2 25 106
3 10 26 107
3 3 27 108
2 28 109
3 2 29 110
3 30 10 111
3 19 31 112
3 5 32 113
3 20 33 114
3 16 34 115
3 21 35 116
3 19 36 117
3 37 22 118
3 7 38 119
3 4 39 120
2 40 121
3 0 41 122
3 22 42 123
3 2 43 124
3 3 45 125
2 47 126
2 48 127
3 10 49 128
3 3 50 129
2 51 130
3 10 52 131
2 53 132
2 54 133
3 2 55 134
3 19 55 135
2 56 136
2 57 137
3 16 58 138
3 21 59 139
3 5 60 140
3 20 61 141
3 4 62 142
3 22 62 143
3 10 63 144
3 3 63 145
2 64 146
2 65 147
3 0 66 148
3 7 66 149
3 16 67 150
3 20 67 151
3 5 68 152
3 21 68 153
2 69 154
2 70 155
3 22 71 156
3 4 72 157
3 19 73 158
3 2 74 159
3 75 1 160
3 22 76 161
3 4 77 162
2 78 163
3 10 79 164
3 3 80 165
3 5 81 166
3 0 82 167
3 20 83 168
3 21 84 169
3 7 85 170
3 16 86 171
3 0 87 172
3 22 88 173
3 7 89 174
2 90 175
3 2 91 176
3 19 92 177
3 4 93 178
2 94 179
2 95 180
3 16 97 181
3 98 16 182
3 21 99 183
3 0 100 184
2 101 185
3 20 102 186
3 5 103 187
3 7 104 188
2 105 189
2 107 190
2 108 191
2 110 192
3 111 9 193
2 112 194
2 113 195
2 114 196
2 115 197
2 116 198
2 117 199
3 118 19 200
2 119 201
2 120 202
2 122 203
2 123 204
2 124 205
2 125 206
2 128 207
2 129 208
2 131 209
2 134 210
2 135 211
2 138 212
2 139 213
2 140 214
2 141 215
2 142 216
2 143 217
2 144 218
2 145 219
2 148 220
2 149 221
2 150 222
2 151 223
2 152 224
2 153 225
2 156 226
2 157 227
2 158 228
2 159 229
3 160 3 230
2 161 231
2 162 232
2 164 233
2 165 234
2 166 235
2 167 236
2 168 237
2 169 238
2 170 239
2 171 240
2 172 241
2 173 242
2 174 243
2 176 244
2 177 245
2 178 246
2 181 247
3 182 21 248
2 183 249
2 184 250
2 186 251
2 187 252
2 188 253
3 193 15 254
3 200 13 255
3 230 17 256
3 248 18 257
2 254 258
2 255 259
2 256 260
2 257 261

2
 0.5 0.5

2
 0.5 0.5

2
 0.5 0.5

2
 0.5 0.5

2
 0.5 0.5

2
 0.5 0.5

2
 0.5 0.5

2
 0.5 0.5

2
 0.5 0.5

2
 0.5 0.5

2
 0.5 0.5

2
 0.5 0.5

2
 0.5 0.5

2
 0.5 0.5

2
 0.5 0.5

2
 0.5 0.5

2
 0.5 0.5

2
 0.5 0.5

2
 0.5 0.5

2
 0.5 0.5

2
 0.5 0.5

2
 0.5 0.5

2
 0.5 0.5

2
 0.5 0.5

4
 0.0 1.0
 0.0 1.0

8
 0.0 1.0
 0.0 1.0
 0.0 1.0
 0.0 1.0

8
 0.0 1.0
 0.0 1.0
 1.0 0.0
 0.0 1.0

8
 0.0 1.0
 0.0 1.0
 1.0 0.0
 0.0 1.0

8
 0.0 1.0
 0.0 1.0
 0.0 1.0
 0.0 1.0

8
 0.0 1.0
 0.0 1.0
 1.0 0.0
 0.0 1.0

8
 1.0 0.0
 0.0 1.0
 0.0 1.0
 0.0 1.0

8
 0.0 1.0
 0.0 1.0
 1.0 0.0
 0.0 1.0

8
 0.0 1.0
 0.0 1.0
 1.0 0.0
 0.0 1.0

8
 0.0 1.0
 0.0 1.0
 1.0 0.0
 0.0 1.0

8
 0.0 1.0
 0.0 1.0
 1.0 0.0
 0.0 1.0

8
 0.0 1.0
 0.0 1.0
 1.0 0.0
 0.0 1.0

8
 0.0 1.0
 0.0 1.0
 1.0 0.0
 0.0 1.0

8
 1.0 0.0
 0.0 1.0
 0.0 1.0
 0.0 1.0

8
 0.0 1.0
 0.0 1.0
 1.0 0.0
 0.0 1.0

8
 0.0 1.0
 0.0 1.0
 1.0 0.0
 0.0 1.0

8
 0.0 1.0
 0.0 1.0
 0.0 1.0
 0.0 1.0

8
 0.0 1.0
 0.0 1.0
 1.0 0.0
 0.0 1.0

8
 0.0 1.0
 0.0 1.0
 1.0 0.0
 0.0 1.0

8
 0.0 1.0
 0.0 1.0
 1.0 0.0
 0.0 1.0

4
 0.0 1.0
 0.0 1.0

8
 0.0 1.0
 0.0 1.0
 1.0 0.0
 0.0 1.0

4
 0.0 1.0
 0.0 1.0

8
 0.0 1.0
 0.0 1.0
 0.0 1.0
 0.0 1.0

8
 0.0 1.0
 0.0 1.0
 0.0 1.0
 0.0 1.0

8
 0.0 1.0
 0.0 1.0
 1.0 0.0
 0.0 1.0

8
 0.0 1.0
 0.0 1.0
 1.0 0.0
 0.0 1.0

8
 0.0 1.0
 0.0 1.0
 0.0 1.0
 0.0 1.0

8
 0.0 1.0
 0.0 1.0
 1.0 0.0
 0.0 1.0

8
 0.0 1.0
 0.0 1.0
 0.0 1.0
 0.0 1.0

8
 0.0 1.0
 0.0 1.0
 1.0 0.0
 0.0 1.0

8
 0.0 1.0
 1.0 0.0
 1.0 0.0
 0.0 1.0

8
 0.0 1.0
 0.0 1.0
 0.0 1.0
 0.0 1.0

8
 0.0 1.0
 0.0 1.0
 1.0 0.0
 0.0 1.0

8
 0.0 1.0
 0.0 1.0
 1.0 0.0
 0.0 1.0

8
 0.0 1.0
 0.0 1.0
 1.0 0.0
 0.0 1.0

8
 0.0 1.0
 0.0 1.0
 1.0 0.0
 0.0 1.0

8
 0.0 1.0
 0.0 1.0
 1.0 0.0
 0.0 1.0

8
 0.0 1.0
 1.0 0.0
 1.0 0.0
 0.0 1.0

8
 0.0 1.0
 1.0 0.0
 1.0 0.0
 0.0 1.0

8
 0.0 1.0
 0.0 1.0
 0.0 1.0
 0.0 1.0

8
 0.0 1.0
 0.0 1.0
 1.0 0.0
 0.0 1.0

8
 0.0 1.0
 1.0 0.0
 1.0 0.0
 0.0 1.0

8
 0.0 1.0
 1.0 0.0
 1.0 0.0
 0.0 1.0

8
 0.0 1.0
 1.0 0.0
 1.0 0.0
 0.0 1.0

8
 0.0 1.0
 0.0 1.0
 1.0 0.0
 0.0 1.0

8
 0.0 1.0
 0.0 1.0
 0.0 1.0
 0.0 1.0

8
 0.0 1.0
 0.0 1.0
 1.0 0.0
 0.0 1.0

8
 0.0 1.0
 0.0 1.0
 1.0 0.0
 0.0 1.0

8
 0.0 1.0
 0.0 1.0
 1.0 0.0
 0.0 1.0

8
 0.0 1.0
 0.0 1.0
 1.0 0.0
 0.0 1.0

8
 1.0 0.0
 0.0 1.0
 0.0 1.0
 0.0 1.0

8
 0.0 1.0
 0.0 1.0
 1.0 0.0
 0.0 1.0

8
 0.0 1.0
 0.0 1.0
 1.0 0.0
 0.0 1.0

8
 0.0 1.0
 0.0 1.0
 0.0 1.0
 0.0 1.0

8
 0.0 1.0
 0.0 1.0
 1.0 0.0
 0.0 1.0

8
 0.0 1.0
 0.0 1.0
 1.0 0.0
 0.0 1.0

8
 0.0 1.0
 0.0 1.0
 1.0 0.0
 0.0 1.0

8
 0.0 1.0
 0.0 1.0
 1.0 0.0
 0.0 1.0

8
 0.0 1.0
 0.0 1.0
 1.0 0.0
 0.0 1.0

8
 0.0 1.0
 0.0 1.0
 1.0 0.0
 0.0 1.0

8
 0.0 1.0
 0.0 1.0
 1.0 0.0
 0.0 1.0

8
 0.0 1.0
 0.0 1.0
 1.0 0.0
 0.0 1.0

8
 0.0 1.0
 0.0 1.0
 1.0 0.0
 0.0 1.0

8
 0.0 1.0
 0.0 1.0
 1.0 0.0
 0.0 1.0

8
 0.0 1.0
 0.0 1.0
 1.0 0.0
 0.0 1.0

8
 0.0 1.0
 0.0 1.0
 0.0 1.0
 0.0 1.0

8
 0.0 1.0
 0.0 1.0
 1.0 0.0
 0.0 1.0

8
 0.0 1.0
 0.0 1.0
 1.0 0.0
 0.0 1.0

8
 0.0 1.0
 0.0 1.0
 1.0 0.0
 0.0 1.0

8
 0.0 1.0
 0.0 1.0
 0.0 1.0
 0.0 1.0

8
 0.0 1.0
 0.0 1.0
 0.0 1.0
 0.0 1.0

4
 0.0 1.0
 0.0 1.0

8
 0.0 1.0
 0.0 1.0
 1.0 0.0
 0.0 1.0

8
 1.0 0.0
 0.0 1.0
 0.0 1.0
 0.0 1.0

8
 0.0 1.0
 0.0 1.0
 1.0 0.0
 0.0 1.0

8
 0.0 1.0
 0.0 1.0
 1.0 0.0
 0.0 1.0

8
 0.0 1.0
 0.0 1.0
 0.0 1.0
 0.0 1.0

8
 0.0 1.0
 0.0 1.0
 1.0 0.0
 0.0 1.0

8
 0.0 1.0
 0.0 1.0
 1.0 0.0
 0.0 1.0

8
 0.0 1.0
 0.0 1.0
 1.0 0.0
 0.0 1.0

8
 0.0 1.0
 0.0 1.0
 0.0 1.0
 0.0 1.0

4
 0.50342 0.49658
 0.0 1.0

8
 0.0 1.0
 0.0 1.0
 1.0 0.0
 0.0 1.0

8
 0.0 1.0
 0.0 1.0
 1.0 0.0
 0.0 1.0

4
 0.50342 0.49658
 0.0 1.0

8
 0.0 1.0
 0.0 1.0
 1.0 0.0
 0.0 1.0

8
 1.0 0.0
 0.0 1.0
 0.0 1.0
 0.0 1.0

8
 0.0 1.0
 0.0 1.0
 1.0 0.0
 0.0 1.0

8
 0.0 1.0
 0.0 1.0
 1.0 0.0
 0.0 1.0

8
 0.0 1.0
 0.0 1.0
 1.0 0.0
 0.0 1.0

8
 0.0 1.0
 0.0 1.0
 1.0 0.0
 0.0 1.0

8
 0.0 1.0
 0.0 1.0
 1.0 0.0
 0.0 1.0

8
 0.0 1.0
 0.0 1.0
 1.0 0.0
 0.0 1.0

8
 1.0 0.0
 0.0 1.0
 0.0 1.0
 0.0 1.0

8
 0.0 1.0
 0.0 1.0
 1.0 0.0
 0.0 1.0

8
 0.0 1.0
 0.0 1.0
 1.0 0.0
 0.0 1.0

4
 0.50342 0.49658
 0.0 1.0

8
 0.0 1.0
 0.0 1.0
 1.0 0.0
 0.0 1.0

8
 0.0 1.0
 0.0 1.0
 1.0 0.0
 0.0 1.0

8
 0.0 1.0
 0.0 1.0
 1.0 0.0
 0.0 1.0

8
 0.0 1.0
 0.0 1.0
 1.0 0.0
 0.0 1.0

4
 0.50342 0.49658
 0.0 1.0

4
 0.50342 0.49658
 0.0 1.0

8
 0.0 1.0
 0.0 1.0
 1.0 0.0
 0.0 1.0

8
 0.0 1.0
 0.0 1.0
 1.0 0.0
 0.0 1.0

4
 0.50342 0.49658
 0.0 1.0

8
 0.0 1.0
 0.0 1.0
 1.0 0.0
 0.0 1.0

4
 0.66713 0.33287
 0.0 1.0

4
 0.77687 0.22313
 0.0 1.0

8
 0.0 1.0
 0.0 1.0
 1.0 0.0
 0.0 1.0

8
 0.0 1.0
 0.0 1.0
 1.0 0.0
 0.0 1.0

4
 0.66713 0.33287
 0.0 1.0

4
 0.77687 0.22313
 0.0 1.0

8
 0.0 1.0
 0.0 1.0
 1.0 0.0
 0.0 1.0

8
 0.0 1.0
 0.0 1.0
 1.0 0.0
 0.0 1.0

8
 0.0 1.0
 0.0 1.0
 1.0 0.0
 0.0 1.0

8
 0.0 1.0
 0.0 1.0
 1.0 0.0
 0.0 1.0

8
 0.0 1.0
 0.0 1.0
 1.0 0.0
 0.0 1.0

8
 0.0 1.0
 0.0 1.0
 1.0 0.0
 0.0 1.0

8
 0.0 1.0
 0.0 1.0
 1.0 0.0
 0.0 1.0

8
 0.0 1.0
 0.0 1.0
 1.0 0.0
 0.0 1.0

4
 0.66713 0.33287
 0.0 1.0

4
 0.77687 0.22313
 0.0 1.0

8
 0.0 1.0
 0.0 1.0
 1.0 0.0
 0.0 1.0

8
 0.0 1.0
 0.0 1.0
 1.0 0.0
 0.0 1.0

8
 0.0 1.0
 0.0 1.0
 1.0 0.0
 0.0 1.0

8
 0.0 1.0
 0.0 1.0
 1.0 0.0
 0.0 1.0

8
 0.0 1.0
 0.0 1.0
 1.0 0.0
 0.0 1.0

8
 0.0 1.0
 0.0 1.0
 1.0 0.0
 0.0 1.0

4
 0.77687 0.22313
 0.0 1.0

4
 0.50342 0.49658
 0.0 1.0

8
 0.0 1.0
 0.0 1.0
 1.0 0.0
 0.0 1.0

8
 0.0 1.0
 0.0 1.0
 1.0 0.0
 0.0 1.0

8
 0.0 1.0
 0.0 1.0
 1.0 0.0
 0.0 1.0

8
 0.0 1.0
 0.0 1.0
 1.0 0.0
 0.0 1.0

8
 1.0 0.0
 0.0 1.0
 0.0 1.0
 0.0 1.0

8
 0.0 1.0
 0.0 1.0
 1.0 0.0
 0.0 1.0

8
 0.0 1.0
 0.0 1.0
 1.0 0.0
 0.0 1.0

4
 0.50342 0.49658
 0.0 1.0

8
 0.0 1.0
 0.0 1.0
 1.0 0.0
 0.0 1.0

8
 0.0 1.0
 0.0 1.0
 1.0 0.0
 0.0 1.0

8
 0.0 1.0
 0.0 1.0
 1.0 0.0
 0.0 1.0

8
 0.0 1.0
 0.0 1.0
 1.0 0.0
 0.0 1.0

8
 0.0 1.0
 0.0 1.0
 1.0 0.0
 0.0 1.0

8
 0.0 1.0
 0.0 1.0
 1.0 0.0
 0.0 1.0

8
 0.0 1.0
 0.0 1.0
 1.0 0.0
 0.0 1.0

8
 0.0 1.0
 0.0 1.0
 1.0 0.0
 0.0 1.0

8
 0.0 1.0
 0.0 1.0
 1.0 0.0
 0.0 1.0

8
 0.0 1.0
 0.0 1.0
 1.0 0.0
 0.0 1.0

8
 0.0 1.0
 0.0 1.0
 1.0 0.0
 0.0 1.0

4
 0.50342 0.49658
 0.0 1.0

8
 0.0 1.0
 0.0 1.0
 1.0 0.0
 0.0 1.0

8
 0.0 1.0
 0.0 1.0
 1.0 0.0
 0.0 1.0

8
 0.0 1.0
 0.0 1.0
 1.0 0.0
 0.0 1.0

4
 0.50342 0.49658
 0.0 1.0

4
 0.66713 0.33287
 0.0 1.0

8
 0.0 1.0
 0.0 1.0
 1.0 0.0
 0.0 1.0

8
 1.0 0.0
 0.0 1.0
 0.0 1.0
 0.0 1.0

8
 0.0 1.0
 0.0 1.0
 1.0 0.0
 0.0 1.0

8
 0.0 1.0
 0.0 1.0
 1.0 0.0
 0.0 1.0

4
 0.50342 0.49658
 0.0 1.0

8
 0.0 1.0
 0.0 1.0
 1.0 0.0
 0.0 1.0

8
 0.0 1.0
 0.0 1.0
 1.0 0.0
 0.0 1.0

8
 0.0 1.0
 0.0 1.0
 1.0 0.0
 0.0 1.0

4
 0.50342 0.49658
 0.0 1.0

4
 0.50342 0.49658
 0.0 1.0

4
 0.50342 0.49658
 0.0 1.0

4
 0.50342 0.49658
 0.0 1.0

8
 1.0 0.0
 0.0 1.0
 0.0 1.0
 0.0 1.0

4
 0.50342 0.49658
 0.0 1.0

4
 0.50342 0.49658
 0.0 1.0

4
 0.50342 0.49658
 0.0 1.0

4
 0.50342 0.49658
 0.0 1.0

4
 0.50342 0.49658
 0.0 1.0

4
 0.50342 0.49658
 0.0 1.0

8
 1.0 0.0
 0.0 1.0
 0.0 1.0
 0.0 1.0

4
 0.50342 0.49658
 0.0 1.0

4
 0.50342 0.49658
 0.0 1.0

4
 0.50342 0.49658
 0.0 1.0

4
 0.50342 0.49658
 0.0 1.0

4
 0.50342 0.49658
 0.0 1.0

4
 0.50342 0.49658
 0.0 1.0

4
 0.50342 0.49658
 0.0 1.0

4
 0.50342 0.49658
 0.0 1.0

4
 0.50342 0.49658
 0.0 1.0

4
 0.66713 0.33287
 0.0 1.0

4
 0.66713 0.33287
 0.0 1.0

4
 0.50342 0.49658
 0.0 1.0

4
 0.50342 0.49658
 0.0 1.0

4
 0.50342 0.49658
 0.0 1.0

4
 0.50342 0.49658
 0.0 1.0

4
 0.66713 0.33287
 0.0 1.0

4
 0.66713 0.33287
 0.0 1.0

4
 0.66713 0.33287
 0.0 1.0

4
 0.66713 0.33287
 0.0 1.0

4
 0.66713 0.33287
 0.0 1.0

4
 0.66713 0.33287
 0.0 1.0

4
 0.66713 0.33287
 0.0 1.0

4
 0.66713 0.33287
 0.0 1.0

4
 0.66713 0.33287
 0.0 1.0

4
 0.66713 0.33287
 0.0 1.0

4
 0.50342 0.49658
 0.0 1.0

4
 0.50342 0.49658
 0.0 1.0

4
 0.50342 0.49658
 0.0 1.0

4
 0.50342 0.49658
 0.0 1.0

8
 1.0 0.0
 0.0 1.0
 0.0 1.0
 0.0 1.0

4
 0.50342 0.49658
 0.0 1.0

4
 0.50342 0.49658
 0.0 1.0

4
 0.50342 0.49658
 0.0 1.0

4
 0.50342 0.49658
 0.0 1.0

4
 0.50342 0.49658
 0.0 1.0

4
 0.50342 0.49658
 0.0 1.0

4
 0.50342 0.49658
 0.0 1.0

4
 0.50342 0.49658
 0.0 1.0

4
 0.50342 0.49658
 0.0 1.0

4
 0.50342 0.49658
 0.0 1.0

4
 0.50342 0.49658
 0.0 1.0

4
 0.50342 0.49658
 0.0 1.0

4
 0.50342 0.49658
 0.0 1.0

4
 0.50342 0.49658
 0.0 1.0

4
 0.50342 0.49658
 0.0 1.0

4
 0.50342 0.49658
 0.0 1.0

4
 0.50342 0.49658
 0.0 1.0

8
 1.0 0.0
 0.0 1.0
 0.0 1.0
 0.0 1.0

4
 0.50342 0.49658
 0.0 1.0

4
 0.50342 0.49658
 0.0 1.0

4
 0.50342 0.49658
 0.0 1.0

4
 0.50342 0.49658
 0.0 1.0

4
 0.50342 0.49658
 0.0 1.0

8
 1.0 0.0
 0.0 1.0
 0.0 1.0
 0.0 1.0

8
 1.0 0.0
 0.0 1.0
 0.0 1.0
 0.0 1.0

8
 1.0 0.0
 0.0 1.0
 0.0 1.0
 0.0 1.0

8
 1.0 0.0
 0.0 1.0
 0.0 1.0
 0.0 1.0

4
 0.8998 0.1002
 0.0 1.0

4
 0.8998 0.1002
 0.0 1.0

4
 0.8998 0.1002
 0.0 1.0

4
 0.8998 0.1002
 0.0 1.0

